molecule{
  Polyene8
     8
     7
     4
     4

 C    0.00000000    0.00000000    0.00000000  -11.16  11.13  1.0
 C    1.21243550    0.70000000    0.00000000  -11.16  11.13  1.0
 C    2.42487100    0.00000000    0.00000000  -11.16  11.13  1.0
 C    3.63730650    0.70000000    0.00000000  -11.16  11.13  1.0
 C    4.84974200    0.00000000    0.00000000  -11.16  11.13  1.0
 C    6.06217750    0.70000000    0.00000000  -11.16  11.13  1.0
 C    7.27461300    0.00000000    0.00000000  -11.16  11.13  1.0
 C    8.48704850    0.70000000    0.00000000  -11.16  11.13  1.0

  1  2  -2.50140  double  1.40000
  2  3  -2.04660  single  1.40000
  3  4  -2.50140  double  1.40000
  4  5  -2.04660  single  1.40000
  5  6  -2.50140  double  1.40000
  6  7  -2.04660  single  1.40000
  7  8  -2.50140  double  1.40000
}

general{method='cue-ccsd',jobtype='polarizability'}
system{memory=2048,nproc=2}
polariz{components=xyz,points=5,step=0.025}
coupled-cluster{t1-step=1,t2-step=1,t3-step=1,projection-type=2-1,accuracy=14,max-iterations=400}
scf{max-iterations=200,accuracy=14,iter-step=0.05,excited-states-method=cis}
diis{enabled,steps=20,storage=ram}
fci{steps=5,max-iterations=500,accuracy=8}
linear-responce{guess=cis,max-iterations=30000,accuracy=13,iter-step=0.03,guess-threshold=0.0001}
states{excited-states-number=0}