molecule{
  bicalicene
      16
      20
       8
       8

 C        1.522529678700       -1.244768106000        0.000000000000   -11.160    11.130  1.0
 C        2.655153470900       -2.067667459300        0.000000000000   -11.160    11.130  1.0
 C        2.222529678700       -3.399146582100        0.000000000000   -11.160    11.130  1.0
 C        0.822529678700       -3.399146582100        0.000000000000   -11.160    11.130  1.0
 C        0.389905886600       -2.067667459300        0.000000000000   -11.160    11.130  1.0
 C        1.522529678700        0.155231894000        0.000000000000   -11.160    11.130  1.0
 C        0.822529678700        1.367667459300        0.000000000000   -11.160    11.130  1.0
 C        2.222529678700        1.367667459300        0.000000000000   -11.160    11.130  1.0
 C       -1.522529678700        1.244768106000        0.000000000000   -11.160    11.130  1.0
 C       -2.655153470800        2.067667459300        0.000000000000   -11.160    11.130  1.0
 C       -2.222529678700        3.399146582100        0.000000000000   -11.160    11.130  1.0
 C       -0.822529678700        3.399146582100        0.000000000000   -11.160    11.130  1.0
 C       -0.389905886600        2.067667459300        0.000000000000   -11.160    11.130  1.0
 C       -1.522529678700       -0.155231894000        0.000000000000   -11.160    11.130  1.0
 C       -0.822529678700       -1.367667459300        0.000000000000   -11.160    11.130  1.0
 C       -2.222529678700       -1.367667459300        0.000000000000   -11.160    11.130  1.0
 
    1    2  -2.274   single  1.40000
    1    5  -2.274   single  1.40000
    1    6  -2.274   double  1.40000
    2    3  -2.274   double  1.40000
    3    4  -2.274   single  1.40000
    4    5  -2.274   double  1.40000
    5   15  -2.274   single  1.40000
    6    7  -2.274   single  1.40000
    6    8  -2.274   single  1.40000
    7    8  -2.274   double  1.40000
    7   13  -2.274   single  1.40000
    9   10  -2.274   single  1.40000
    9   13  -2.274   single  1.40000
    9   14  -2.274   double  1.40000
   10   11  -2.274   double  1.40000
   11   12  -2.274   single  1.40000
   12   13  -2.274   double  1.40000
   14   15  -2.274   single  1.40000
   14   16  -2.274   single  1.40000
   15   16  -2.274   double  1.40000
}

general{method='cue-ccsd',jobtype='polarizability'}
system{memory=2048,nproc=4,verbose=3,allow-restart,email-send,
email-send-tared,email-reciver='abzakharov@karazin.ua'}
coupled-cluster{t3-step=1.E-6}
