molecule{
  calicene[3-3_1x1_e]
       6
       7
       3
       3

 C        0.000000000000       -0.700000000000        0.000000000000   -11.160    11.130  1.0
 C        0.700000000000       -1.912435565298        0.000000000000   -11.160    11.130  1.0
 C       -0.700000000000       -1.912435565298        0.000000000000   -11.160    11.130  1.0
 C        0.000000000000        0.700000000000        0.000000000000   -11.160    11.130  1.0
 C       -0.700000000000        1.912435565298        0.000000000000   -11.160    11.130  1.0
 C        0.700000000000        1.912435565298        0.000000000000   -11.160    11.130  1.0
 
    1    2  -2.274 single 1.40000
    1    3  -2.274 single 1.40000
    1    4  -2.274 double 1.40000
    2    3  -2.274 double 1.40000
    4    5  -2.274 single 1.40000
    4    6  -2.274 single 1.40000
    5    6  -2.274 double 1.40000
}
general{method='cue-ccsd',jobtype='polarizability'}
system{memory=2048,nproc=4,verbose=3,allow-restart,email-send,
email-send-tared,email-reciver='abzakharov@karazin.ua'}
coupled-cluster{t3-step=1.E-6}