molecule{
  calicene
       8
       9
       4
       4

 Ñ        0.000000000000       -0.083789434000        0.000000000000   -11.160    11.130  1.0
 Ñ        1.132623792200       -0.906688787300        0.000000000000   -11.160    11.130  1.0
 Ñ        0.700000000000       -2.238167910100        0.000000000000   -11.160    11.130  1.0
 Ñ       -0.700000000000       -2.238167910100        0.000000000000   -11.160    11.130  1.0
 Ñ       -1.132623792100       -0.906688787300        0.000000000000   -11.160    11.130  1.0
 Ñ        0.000000000000        1.316210566000        0.000000000000   -11.160    11.130  1.0
 Ñ       -0.700000000000        2.528646131300        0.000000000000   -11.160    11.130  1.0
 Ñ        0.700000000000        2.528646131300        0.000000000000   -11.160    11.130  1.0
 
    1    2  -2.274 single 1.40000
    1    5  -2.274 single 1.40000
    1    6  -2.274 double 1.40000
    2    3  -2.274 double 1.40000
    3    4  -2.274 single 1.40000
    4    5  -2.274 double 1.40000
    6    7  -2.274 single 1.40000
    6    8  -2.274 single 1.40000
    7    8  -2.274 double 1.40000
}

general{method='cue-ccsd',jobtype='polarizability'}
system{memory=2048,nproc=4,verbose=3,allow-restart,email-send,
email-send-tared,email-reciver='abzakharov@karazin.ua'}
coupled-cluster{t1-step=1,t2-step=1,t3-step=1,projection-type=2-1}
scf{max-iterations=200,accuracy=14,iter-step=0.05d0}
diis{enabled,steps=20, storage=ram}
fci{steps=5,max-iterations=1000,accuracy=13}