molecule{
  furan
       5
       5
       3
       3

 O        0.000000000000        0.822899353209        0.000000000000    -34.000000   23.000000 2.0
 C        1.132623792125        0.000000000000        0.000000000000    -11.160000   11.130000 1.0
 C        0.700000000000       -1.331479122813        0.000000000000    -11.160000   11.130000 1.0
 C       -0.700000000000       -1.331479122813        0.000000000000    -11.160000   11.130000 1.0
 C       -1.132623792125        0.000000000000        0.000000000000    -11.160000   11.130000 1.0
 
    1    2  -2.500 single
    1    5  -2.500 single
    2    3  -2.400 double
    3    4  -2.100 single
    4    5  -2.400 double
}

general{method='cue-ccsd+hf',jobtype='polarizability',coulomb-integrals='mataga-nishimoto'}
system{memory=2048,nproc=4,verbose=3,allow-restart,email-send,
email-send-tared,email-reciver='abzakharov@karazin.ua'}
coupled-cluster{t3-step=1.E-6}