general{method='cue-ccsd',jobtype='polarizability'}
system{memory=2048,nproc=4,verbose=3,allow-restart,email-send,
email-send-tared,email-reciver='abzakharov@karazin.ua'}
coupled-cluster{t3-step=1.E-6}
cue{t2-limit=2,spare-algorithm}

molecule{
  nanotore[5_10]
     200
     300
     100
     100

 C       -2.250437215629      -10.582484557359        0.000000000000   -11.160    11.130  1.0
 C       -1.953966265158       -9.188355792838       -1.961761953822   -11.160    11.130  1.0
 C       -1.474266190621       -6.932608067149       -1.212435565298   -11.160    11.130  1.0
 C       -1.474266190621       -6.932608067149        1.212435565298   -11.160    11.130  1.0
 C       -1.953966265158       -9.188355792838        1.961761953822   -11.160    11.130  1.0
 C       -3.221557770979       -9.914935315802       -1.212435565298   -11.160    11.130  1.0
 C       -2.508906026342       -7.721618773593       -1.961761953822   -11.160    11.130  1.0
 C       -2.068463026014       -6.366074602420        0.000000000000   -11.160    11.130  1.0
 C       -2.508906026342       -7.721618773593        1.961761953822   -11.160    11.130  1.0
 C       -3.221557770979       -9.914935315802        1.212435565298   -11.160    11.130  1.0
 C       -5.213455736222       -9.027970761735       -1.212435565298   -11.160    11.130  1.0
 C       -4.060169472205       -7.030862663336       -1.961761953822   -11.160    11.130  1.0
 C       -3.347399362284       -5.796581979317        0.000000000000   -11.160    11.130  1.0
 C       -4.060169472205       -7.030862663336        1.961761953822   -11.160    11.130  1.0
 C       -5.213455736222       -9.027970761735        1.212435565298   -11.160    11.130  1.0
 C       -6.359321609810       -8.752855290204        0.000000000000   -11.160    11.130  1.0
 C       -5.521549238773       -7.599760545239       -1.961761953822   -11.160    11.130  1.0
 C       -4.166005067601       -5.734014055637       -1.212435565298   -11.160    11.130  1.0
 C       -4.166005067601       -5.734014055637        1.212435565298   -11.160    11.130  1.0
 C       -5.521549238773       -7.599760545239        1.961761953822   -11.160    11.130  1.0
 C       -8.040870307646       -7.238636043058        0.000000000000   -11.160    11.130  1.0
 C       -6.981571942795       -6.285023432633       -1.961761953822   -11.160    11.130  1.0
 C       -5.267591184239       -4.742045816865       -1.212435565298   -11.160    11.130  1.0
 C       -5.267591184239       -4.742045816865        1.212435565298   -11.160    11.130  1.0
 C       -6.981571942795       -6.285023432633        1.961761953822   -11.160    11.130  1.0
 C       -8.434147741145       -6.127767021422       -1.212435565298   -11.160    11.130  1.0
 C       -6.568401251543       -4.772222850250       -1.961761953822   -11.160    11.130  1.0
 C       -5.415306506578       -3.934450479213        0.000000000000   -11.160    11.130  1.0
 C       -6.568401251543       -4.772222850250        1.961761953822   -11.160    11.130  1.0
 C       -8.434147741145       -6.127767021422        1.212435565298   -11.160    11.130  1.0
 C       -9.524282361901       -4.239389375733       -1.212435565298   -11.160    11.130  1.0
 C       -7.417383487459       -3.301579642185       -1.961761953822   -11.160    11.130  1.0
 C       -6.115248372195       -2.721981351871        0.000000000000   -11.160    11.130  1.0
 C       -7.417383487459       -3.301579642185        1.961761953822   -11.160    11.130  1.0
 C       -9.524282361901       -4.239389375733        1.212435565298   -11.160    11.130  1.0
 C      -10.289598510064       -3.343293222248        0.000000000000   -11.160    11.130  1.0
 C       -8.934054338891       -2.902850221921       -1.961761953822   -11.160    11.130  1.0
 C       -6.740737796682       -2.190198477284       -1.212435565298   -11.160    11.130  1.0
 C       -6.740737796682       -2.190198477284        1.212435565298   -11.160    11.130  1.0
 C       -8.934054338891       -2.902850221921        1.961761953822   -11.160    11.130  1.0
 C      -10.759964241273       -1.129874592498        0.000000000000   -11.160    11.130  1.0
 C       -9.342454433187       -0.981025741251       -1.961761953822   -11.160    11.130  1.0
 C       -7.048875384317       -0.740183240747       -1.212435565298   -11.160    11.130  1.0
 C       -7.048875384317       -0.740183240747        1.212435565298   -11.160    11.130  1.0
 C       -9.342454433187       -0.981025741251        1.961761953822   -11.160    11.130  1.0
 C      -10.425179940332        0.000000000000       -1.212435565298   -11.160    11.130  1.0
 C       -8.118990450402        0.000000000000       -1.961761953822   -11.160    11.130  1.0
 C       -6.693686961128        0.000000000000        0.000000000000   -11.160    11.130  1.0
 C       -8.118990450402        0.000000000000        1.961761953822   -11.160    11.130  1.0
 C      -10.425179940332        0.000000000000        1.212435565298   -11.160    11.130  1.0
 C      -10.197156843785        2.168494660254       -1.212435565298   -11.160    11.130  1.0
 C       -7.941409118096        1.688794585716       -1.961761953822   -11.160    11.130  1.0
 C       -6.547280353575        1.392323635246        0.000000000000   -11.160    11.130  1.0
 C       -7.941409118096        1.688794585716        1.961761953822   -11.160    11.130  1.0
 C      -10.197156843785        2.168494660254        1.212435565298   -11.160    11.130  1.0
 C      -10.289598510064        3.343293222248        0.000000000000   -11.160    11.130  1.0
 C       -8.934054338891        2.902850221921       -1.961761953822   -11.160    11.130  1.0
 C       -6.740737796682        2.190198477284       -1.212435565298   -11.160    11.130  1.0
 C       -6.740737796682        2.190198477284        1.212435565298   -11.160    11.130  1.0
 C       -8.934054338891        2.902850221921        1.961761953822   -11.160    11.130  1.0
 C       -9.369117552466        5.410460549371        0.000000000000   -11.160    11.130  1.0
 C       -8.134836868448        4.697690439450       -1.961761953822   -11.160    11.130  1.0
 C       -6.137728770049        3.544404175433       -1.212435565298   -11.160    11.130  1.0
 C       -6.137728770049        3.544404175433        1.212435565298   -11.160    11.130  1.0
 C       -8.134836868448        4.697690439450        1.961761953822   -11.160    11.130  1.0
 C       -8.434147741145        6.127767021422       -1.212435565298   -11.160    11.130  1.0
 C       -6.568401251543        4.772222850250       -1.961761953822   -11.160    11.130  1.0
 C       -5.415306506578        3.934450479213        0.000000000000   -11.160    11.130  1.0
 C       -6.568401251543        4.772222850250        1.961761953822   -11.160    11.130  1.0
 C       -8.434147741145        6.127767021422        1.212435565298   -11.160    11.130  1.0
 C       -6.975063999956        7.748087440447       -1.212435565298   -11.160    11.130  1.0
 C       -5.432086384188        6.034106681890       -1.961761953822   -11.160    11.130  1.0
 C       -4.478473773763        4.974808317039        0.000000000000   -11.160    11.130  1.0
 C       -5.432086384188        6.034106681890        1.961761953822   -11.160    11.130  1.0
 C       -6.975063999956        7.748087440447        1.212435565298   -11.160    11.130  1.0
 C       -6.359321609810        8.752855290204        0.000000000000   -11.160    11.130  1.0
 C       -5.521549238773        7.599760545239       -1.961761953822   -11.160    11.130  1.0
 C       -4.166005067601        5.734014055637       -1.212435565298   -11.160    11.130  1.0
 C       -4.166005067601        5.734014055637        1.212435565298   -11.160    11.130  1.0
 C       -5.521549238773        7.599760545239        1.961761953822   -11.160    11.130  1.0
 C       -4.399586403211        9.884183656171        0.000000000000   -11.160    11.130  1.0
 C       -3.819988112898        8.582048540907       -1.961761953822   -11.160    11.130  1.0
 C       -2.882178379350        6.475149666465       -1.212435565298   -11.160    11.130  1.0
 C       -2.882178379350        6.475149666465        1.212435565298   -11.160    11.130  1.0
 C       -3.819988112898        8.582048540907        1.961761953822   -11.160    11.130  1.0
 C       -3.221557770979        9.914935315802       -1.212435565298   -11.160    11.130  1.0
 C       -2.508906026342        7.721618773593       -1.961761953822   -11.160    11.130  1.0
 C       -2.068463026014        6.366074602420        0.000000000000   -11.160    11.130  1.0
 C       -2.508906026342        7.721618773593        1.961761953822   -11.160    11.130  1.0
 C       -3.221557770979        9.914935315802        1.212435565298   -11.160    11.130  1.0
 C       -1.088733781850       10.368174166195       -1.212435565298   -11.160    11.130  1.0
 C       -0.847891281346        8.074595117325       -1.961761953822   -11.160    11.130  1.0
 C       -0.699042430099        6.657085309239        0.000000000000   -11.160    11.130  1.0
 C       -0.847891281346        8.074595117325        1.961761953822   -11.160    11.130  1.0
 C       -1.088733781850       10.368174166195        1.212435565298   -11.160    11.130  1.0
 C        0.000000000000       10.819124135910        0.000000000000   -11.160    11.130  1.0
 C        0.000000000000        9.393820646636       -1.961761953822   -11.160    11.130  1.0
 C        0.000000000000        7.087631156706       -1.212435565298   -11.160    11.130  1.0
 C        0.000000000000        7.087631156706        1.212435565298   -11.160    11.130  1.0
 C        0.000000000000        9.393820646636        1.961761953822   -11.160    11.130  1.0
 C        2.250437215629       10.582484557359        0.000000000000   -11.160    11.130  1.0
 C        1.953966265158        9.188355792838       -1.961761953822   -11.160    11.130  1.0
 C        1.474266190621        6.932608067149       -1.212435565298   -11.160    11.130  1.0
 C        1.474266190621        6.932608067149        1.212435565298   -11.160    11.130  1.0
 C        1.953966265158        9.188355792838        1.961761953822   -11.160    11.130  1.0
 C        3.221557770979        9.914935315802       -1.212435565298   -11.160    11.130  1.0
 C        2.508906026342        7.721618773593       -1.961761953822   -11.160    11.130  1.0
 C        2.068463026014        6.366074602420        0.000000000000   -11.160    11.130  1.0
 C        2.508906026342        7.721618773593        1.961761953822   -11.160    11.130  1.0
 C        3.221557770979        9.914935315802        1.212435565298   -11.160    11.130  1.0
 C        5.213455736222        9.027970761735       -1.212435565298   -11.160    11.130  1.0
 C        4.060169472205        7.030862663336       -1.961761953822   -11.160    11.130  1.0
 C        3.347399362284        5.796581979317        0.000000000000   -11.160    11.130  1.0
 C        4.060169472205        7.030862663336        1.961761953822   -11.160    11.130  1.0
 C        5.213455736222        9.027970761735        1.212435565298   -11.160    11.130  1.0
 C        6.359321609810        8.752855290204        0.000000000000   -11.160    11.130  1.0
 C        5.521549238773        7.599760545239       -1.961761953822   -11.160    11.130  1.0
 C        4.166005067601        5.734014055637       -1.212435565298   -11.160    11.130  1.0
 C        4.166005067601        5.734014055637        1.212435565298   -11.160    11.130  1.0
 C        5.521549238773        7.599760545239        1.961761953822   -11.160    11.130  1.0
 C        8.040870307646        7.238636043058        0.000000000000   -11.160    11.130  1.0
 C        6.981571942795        6.285023432633       -1.961761953822   -11.160    11.130  1.0
 C        5.267591184239        4.742045816865       -1.212435565298   -11.160    11.130  1.0
 C        5.267591184239        4.742045816865        1.212435565298   -11.160    11.130  1.0
 C        6.981571942795        6.285023432633        1.961761953822   -11.160    11.130  1.0
 C        8.434147741145        6.127767021422       -1.212435565298   -11.160    11.130  1.0
 C        6.568401251543        4.772222850250       -1.961761953822   -11.160    11.130  1.0
 C        5.415306506578        3.934450479213        0.000000000000   -11.160    11.130  1.0
 C        6.568401251543        4.772222850250        1.961761953822   -11.160    11.130  1.0
 C        8.434147741145        6.127767021422        1.212435565298   -11.160    11.130  1.0
 C        9.524282361901        4.239389375733       -1.212435565298   -11.160    11.130  1.0
 C        7.417383487459        3.301579642185       -1.961761953822   -11.160    11.130  1.0
 C        6.115248372195        2.721981351871        0.000000000000   -11.160    11.130  1.0
 C        7.417383487459        3.301579642185        1.961761953822   -11.160    11.130  1.0
 C        9.524282361901        4.239389375733        1.212435565298   -11.160    11.130  1.0
 C       10.289598510064        3.343293222248        0.000000000000   -11.160    11.130  1.0
 C        8.934054338891        2.902850221921       -1.961761953822   -11.160    11.130  1.0
 C        6.740737796682        2.190198477284       -1.212435565298   -11.160    11.130  1.0
 C        6.740737796682        2.190198477284        1.212435565298   -11.160    11.130  1.0
 C        8.934054338891        2.902850221921        1.961761953822   -11.160    11.130  1.0
 C       10.759964241273        1.129874592498        0.000000000000   -11.160    11.130  1.0
 C        9.342454433187        0.981025741251       -1.961761953822   -11.160    11.130  1.0
 C        7.048875384317        0.740183240747       -1.212435565298   -11.160    11.130  1.0
 C        7.048875384317        0.740183240747        1.212435565298   -11.160    11.130  1.0
 C        9.342454433187        0.981025741251        1.961761953822   -11.160    11.130  1.0
 C       10.425179940332        0.000000000000       -1.212435565298   -11.160    11.130  1.0
 C        8.118990450402        0.000000000000       -1.961761953822   -11.160    11.130  1.0
 C        6.693686961128        0.000000000000        0.000000000000   -11.160    11.130  1.0
 C        8.118990450402        0.000000000000        1.961761953822   -11.160    11.130  1.0
 C       10.425179940332        0.000000000000        1.212435565298   -11.160    11.130  1.0
 C       10.197156843785       -2.168494660254       -1.212435565298   -11.160    11.130  1.0
 C        7.941409118096       -1.688794585716       -1.961761953822   -11.160    11.130  1.0
 C        6.547280353575       -1.392323635246        0.000000000000   -11.160    11.130  1.0
 C        7.941409118096       -1.688794585716        1.961761953822   -11.160    11.130  1.0
 C       10.197156843785       -2.168494660254        1.212435565298   -11.160    11.130  1.0
 C       10.289598510064       -3.343293222248        0.000000000000   -11.160    11.130  1.0
 C        8.934054338891       -2.902850221921       -1.961761953822   -11.160    11.130  1.0
 C        6.740737796682       -2.190198477284       -1.212435565298   -11.160    11.130  1.0
 C        6.740737796682       -2.190198477284        1.212435565298   -11.160    11.130  1.0
 C        8.934054338891       -2.902850221921        1.961761953822   -11.160    11.130  1.0
 C        9.369117552466       -5.410460549371        0.000000000000   -11.160    11.130  1.0
 C        8.134836868448       -4.697690439450       -1.961761953822   -11.160    11.130  1.0
 C        6.137728770049       -3.544404175433       -1.212435565298   -11.160    11.130  1.0
 C        6.137728770049       -3.544404175433        1.212435565298   -11.160    11.130  1.0
 C        8.134836868448       -4.697690439450        1.961761953822   -11.160    11.130  1.0
 C        8.434147741145       -6.127767021422       -1.212435565298   -11.160    11.130  1.0
 C        6.568401251543       -4.772222850250       -1.961761953822   -11.160    11.130  1.0
 C        5.415306506578       -3.934450479213        0.000000000000   -11.160    11.130  1.0
 C        6.568401251543       -4.772222850250        1.961761953822   -11.160    11.130  1.0
 C        8.434147741145       -6.127767021422        1.212435565298   -11.160    11.130  1.0
 C        6.975063999956       -7.748087440447       -1.212435565298   -11.160    11.130  1.0
 C        5.432086384188       -6.034106681890       -1.961761953822   -11.160    11.130  1.0
 C        4.478473773763       -4.974808317039        0.000000000000   -11.160    11.130  1.0
 C        5.432086384188       -6.034106681890        1.961761953822   -11.160    11.130  1.0
 C        6.975063999956       -7.748087440447        1.212435565298   -11.160    11.130  1.0
 C        6.359321609810       -8.752855290204        0.000000000000   -11.160    11.130  1.0
 C        5.521549238773       -7.599760545239       -1.961761953822   -11.160    11.130  1.0
 C        4.166005067601       -5.734014055637       -1.212435565298   -11.160    11.130  1.0
 C        4.166005067601       -5.734014055637        1.212435565298   -11.160    11.130  1.0
 C        5.521549238773       -7.599760545239        1.961761953822   -11.160    11.130  1.0
 C        4.399586403211       -9.884183656171        0.000000000000   -11.160    11.130  1.0
 C        3.819988112898       -8.582048540907       -1.961761953822   -11.160    11.130  1.0
 C        2.882178379350       -6.475149666465       -1.212435565298   -11.160    11.130  1.0
 C        2.882178379350       -6.475149666465        1.212435565298   -11.160    11.130  1.0
 C        3.819988112898       -8.582048540907        1.961761953822   -11.160    11.130  1.0
 C        3.221557770979       -9.914935315802       -1.212435565298   -11.160    11.130  1.0
 C        2.508906026342       -7.721618773593       -1.961761953822   -11.160    11.130  1.0
 C        2.068463026014       -6.366074602420        0.000000000000   -11.160    11.130  1.0
 C        2.508906026342       -7.721618773593        1.961761953822   -11.160    11.130  1.0
 C        3.221557770979       -9.914935315802        1.212435565298   -11.160    11.130  1.0
 C        1.088733781850      -10.368174166195       -1.212435565298   -11.160    11.130  1.0
 C        0.847891281346       -8.074595117325       -1.961761953822   -11.160    11.130  1.0
 C        0.699042430099       -6.657085309239        0.000000000000   -11.160    11.130  1.0
 C        0.847891281346       -8.074595117325        1.961761953822   -11.160    11.130  1.0
 C        1.088733781850      -10.368174166195        1.212435565298   -11.160    11.130  1.0
 C        0.000000000000      -10.819124135910        0.000000000000   -11.160    11.130  1.0
 C        0.000000000000       -9.393820646636       -1.961761953822   -11.160    11.130  1.0
 C        0.000000000000       -7.087631156706       -1.212435565298   -11.160    11.130  1.0
 C        0.000000000000       -7.087631156706        1.212435565298   -11.160    11.130  1.0
 C        0.000000000000       -9.393820646636        1.961761953822   -11.160    11.130  1.0
 
    1    6  -2.274 double 1.69077
    1   10  -2.274 single 1.69077
    1  196  -2.274 single 2.26284
    2    7  -2.274 double 1.56821
    2    6  -2.274 single 1.64201
    2  197  -2.274 single 1.96474
    3    8  -2.274 double 1.46425
    3  198  -2.274 single 1.48239
    3    7  -2.274 single 1.50150
    4    8  -2.274 single 1.46425
    4  199  -2.274 single 1.48239
    4    9  -2.274 double 1.50150
    5    9  -2.274 single 1.56821
    5   10  -2.274 double 1.64201
    5  200  -2.274 single 1.96474
    6   11  -2.274 single 2.18045
    7   12  -2.274 single 1.69811
    8   13  -2.274 single 1.40000
    9   14  -2.274 single 1.69811
   10   15  -2.274 single 2.18045
   11   17  -2.274 single 1.64201
   11   16  -2.274 double 1.69077
   12   18  -2.274 single 1.50150
   12   17  -2.274 double 1.56821
   13   18  -2.274 double 1.46425
   13   19  -2.274 single 1.46425
   14   19  -2.274 double 1.50150
   14   20  -2.274 single 1.56821
   15   20  -2.274 double 1.64201
   15   16  -2.274 single 1.69077
   16   21  -2.274 single 2.26284
   17   22  -2.274 single 1.96474
   18   23  -2.274 single 1.48239
   19   24  -2.274 single 1.48239
   20   25  -2.274 single 1.96474
   21   26  -2.274 double 1.69077
   21   30  -2.274 single 1.69077
   22   27  -2.274 double 1.56821
   22   26  -2.274 single 1.64201
   23   28  -2.274 double 1.46425
   23   27  -2.274 single 1.50150
   24   28  -2.274 single 1.46425
   24   29  -2.274 double 1.50150
   25   29  -2.274 single 1.56821
   25   30  -2.274 double 1.64201
   26   31  -2.274 single 2.18045
   27   32  -2.274 single 1.69811
   28   33  -2.274 single 1.40000
   29   34  -2.274 single 1.69811
   30   35  -2.274 single 2.18045
   31   37  -2.274 single 1.64201
   31   36  -2.274 double 1.69077
   32   38  -2.274 single 1.50150
   32   37  -2.274 double 1.56821
   33   38  -2.274 double 1.46425
   33   39  -2.274 single 1.46425
   34   39  -2.274 double 1.50150
   34   40  -2.274 single 1.56821
   35   40  -2.274 double 1.64201
   35   36  -2.274 single 1.69077
   36   41  -2.274 single 2.26284
   37   42  -2.274 single 1.96474
   38   43  -2.274 single 1.48239
   39   44  -2.274 single 1.48239
   40   45  -2.274 single 1.96474
   41   46  -2.274 double 1.69077
   41   50  -2.274 single 1.69077
   42   47  -2.274 double 1.56821
   42   46  -2.274 single 1.64201
   43   48  -2.274 double 1.46425
   43   47  -2.274 single 1.50150
   44   48  -2.274 single 1.46425
   44   49  -2.274 double 1.50150
   45   49  -2.274 single 1.56821
   45   50  -2.274 double 1.64201
   46   51  -2.274 single 2.18045
   47   52  -2.274 single 1.69811
   48   53  -2.274 single 1.40000
   49   54  -2.274 single 1.69811
   50   55  -2.274 single 2.18045
   51   57  -2.274 single 1.64201
   51   56  -2.274 double 1.69077
   52   58  -2.274 single 1.50150
   52   57  -2.274 double 1.56821
   53   58  -2.274 double 1.46425
   53   59  -2.274 single 1.46425
   54   59  -2.274 double 1.50150
   54   60  -2.274 single 1.56821
   55   60  -2.274 double 1.64201
   55   56  -2.274 single 1.69077
   56   61  -2.274 single 2.26284
   57   62  -2.274 single 1.96474
   58   63  -2.274 single 1.48239
   59   64  -2.274 single 1.48239
   60   65  -2.274 single 1.96474
   61   66  -2.274 double 1.69077
   61   70  -2.274 single 1.69077
   62   67  -2.274 double 1.56821
   62   66  -2.274 single 1.64201
   63   68  -2.274 double 1.46425
   63   67  -2.274 single 1.50150
   64   68  -2.274 single 1.46425
   64   69  -2.274 double 1.50150
   65   69  -2.274 single 1.56821
   65   70  -2.274 double 1.64201
   66   71  -2.274 single 2.18045
   67   72  -2.274 single 1.69811
   68   73  -2.274 single 1.40000
   69   74  -2.274 single 1.69811
   70   75  -2.274 single 2.18045
   71   77  -2.274 single 1.64201
   71   76  -2.274 double 1.69077
   72   78  -2.274 single 1.50150
   72   77  -2.274 double 1.56821
   73   78  -2.274 double 1.46425
   73   79  -2.274 single 1.46425
   74   79  -2.274 double 1.50150
   74   80  -2.274 single 1.56821
   75   80  -2.274 double 1.64201
   75   76  -2.274 single 1.69077
   76   81  -2.274 single 2.26284
   77   82  -2.274 single 1.96474
   78   83  -2.274 single 1.48239
   79   84  -2.274 single 1.48239
   80   85  -2.274 single 1.96474
   81   86  -2.274 double 1.69077
   81   90  -2.274 single 1.69077
   82   87  -2.274 double 1.56821
   82   86  -2.274 single 1.64201
   83   88  -2.274 double 1.46425
   83   87  -2.274 single 1.50150
   84   88  -2.274 single 1.46425
   84   89  -2.274 double 1.50150
   85   89  -2.274 single 1.56821
   85   90  -2.274 double 1.64201
   86   91  -2.274 single 2.18045
   87   92  -2.274 single 1.69811
   88   93  -2.274 single 1.40000
   89   94  -2.274 single 1.69811
   90   95  -2.274 single 2.18045
   91   97  -2.274 single 1.64201
   91   96  -2.274 double 1.69077
   92   98  -2.274 single 1.50150
   92   97  -2.274 double 1.56821
   93   98  -2.274 double 1.46425
   93   99  -2.274 single 1.46425
   94   99  -2.274 double 1.50150
   94  100  -2.274 single 1.56821
   95  100  -2.274 double 1.64201
   95   96  -2.274 single 1.69077
   96  101  -2.274 single 2.26284
   97  102  -2.274 single 1.96474
   98  103  -2.274 single 1.48239
   99  104  -2.274 single 1.48239
  100  105  -2.274 single 1.96474
  101  106  -2.274 double 1.69077
  101  110  -2.274 single 1.69077
  102  107  -2.274 double 1.56821
  102  106  -2.274 single 1.64201
  103  108  -2.274 double 1.46425
  103  107  -2.274 single 1.50150
  104  108  -2.274 single 1.46425
  104  109  -2.274 double 1.50150
  105  109  -2.274 single 1.56821
  105  110  -2.274 double 1.64201
  106  111  -2.274 single 2.18045
  107  112  -2.274 single 1.69811
  108  113  -2.274 single 1.40000
  109  114  -2.274 single 1.69811
  110  115  -2.274 single 2.18045
  111  117  -2.274 single 1.64201
  111  116  -2.274 double 1.69077
  112  118  -2.274 single 1.50150
  112  117  -2.274 double 1.56821
  113  118  -2.274 double 1.46425
  113  119  -2.274 single 1.46425
  114  119  -2.274 double 1.50150
  114  120  -2.274 single 1.56821
  115  120  -2.274 double 1.64201
  115  116  -2.274 single 1.69077
  116  121  -2.274 single 2.26284
  117  122  -2.274 single 1.96474
  118  123  -2.274 single 1.48239
  119  124  -2.274 single 1.48239
  120  125  -2.274 single 1.96474
  121  126  -2.274 double 1.69077
  121  130  -2.274 single 1.69077
  122  127  -2.274 double 1.56821
  122  126  -2.274 single 1.64201
  123  128  -2.274 double 1.46425
  123  127  -2.274 single 1.50150
  124  128  -2.274 single 1.46425
  124  129  -2.274 double 1.50150
  125  129  -2.274 single 1.56821
  125  130  -2.274 double 1.64201
  126  131  -2.274 single 2.18045
  127  132  -2.274 single 1.69811
  128  133  -2.274 single 1.40000
  129  134  -2.274 single 1.69811
  130  135  -2.274 single 2.18045
  131  137  -2.274 single 1.64201
  131  136  -2.274 double 1.69077
  132  138  -2.274 single 1.50150
  132  137  -2.274 double 1.56821
  133  138  -2.274 double 1.46425
  133  139  -2.274 single 1.46425
  134  139  -2.274 double 1.50150
  134  140  -2.274 single 1.56821
  135  140  -2.274 double 1.64201
  135  136  -2.274 single 1.69077
  136  141  -2.274 single 2.26284
  137  142  -2.274 single 1.96474
  138  143  -2.274 single 1.48239
  139  144  -2.274 single 1.48239
  140  145  -2.274 single 1.96474
  141  146  -2.274 double 1.69077
  141  150  -2.274 single 1.69077
  142  147  -2.274 double 1.56821
  142  146  -2.274 single 1.64201
  143  148  -2.274 double 1.46425
  143  147  -2.274 single 1.50150
  144  148  -2.274 single 1.46425
  144  149  -2.274 double 1.50150
  145  149  -2.274 single 1.56821
  145  150  -2.274 double 1.64201
  146  151  -2.274 single 2.18045
  147  152  -2.274 single 1.69811
  148  153  -2.274 single 1.40000
  149  154  -2.274 single 1.69811
  150  155  -2.274 single 2.18045
  151  157  -2.274 single 1.64201
  151  156  -2.274 double 1.69077
  152  158  -2.274 single 1.50150
  152  157  -2.274 double 1.56821
  153  158  -2.274 double 1.46425
  153  159  -2.274 single 1.46425
  154  159  -2.274 double 1.50150
  154  160  -2.274 single 1.56821
  155  160  -2.274 double 1.64201
  155  156  -2.274 single 1.69077
  156  161  -2.274 single 2.26284
  157  162  -2.274 single 1.96474
  158  163  -2.274 single 1.48239
  159  164  -2.274 single 1.48239
  160  165  -2.274 single 1.96474
  161  166  -2.274 double 1.69077
  161  170  -2.274 single 1.69077
  162  167  -2.274 double 1.56821
  162  166  -2.274 single 1.64201
  163  168  -2.274 double 1.46425
  163  167  -2.274 single 1.50150
  164  168  -2.274 single 1.46425
  164  169  -2.274 double 1.50150
  165  169  -2.274 single 1.56821
  165  170  -2.274 double 1.64201
  166  171  -2.274 single 2.18045
  167  172  -2.274 single 1.69811
  168  173  -2.274 single 1.40000
  169  174  -2.274 single 1.69811
  170  175  -2.274 single 2.18045
  171  177  -2.274 single 1.64201
  171  176  -2.274 double 1.69077
  172  178  -2.274 single 1.50150
  172  177  -2.274 double 1.56821
  173  178  -2.274 double 1.46425
  173  179  -2.274 single 1.46425
  174  179  -2.274 double 1.50150
  174  180  -2.274 single 1.56821
  175  180  -2.274 double 1.64201
  175  176  -2.274 single 1.69077
  176  181  -2.274 single 2.26284
  177  182  -2.274 single 1.96474
  178  183  -2.274 single 1.48239
  179  184  -2.274 single 1.48239
  180  185  -2.274 single 1.96474
  181  186  -2.274 double 1.69077
  181  190  -2.274 single 1.69077
  182  187  -2.274 double 1.56821
  182  186  -2.274 single 1.64201
  183  188  -2.274 double 1.46425
  183  187  -2.274 single 1.50150
  184  188  -2.274 single 1.46425
  184  189  -2.274 double 1.50150
  185  189  -2.274 single 1.56821
  185  190  -2.274 double 1.64201
  186  191  -2.274 single 2.18045
  187  192  -2.274 single 1.69811
  188  193  -2.274 single 1.40000
  189  194  -2.274 single 1.69811
  190  195  -2.274 single 2.18045
  191  197  -2.274 single 1.64201
  191  196  -2.274 double 1.69077
  192  198  -2.274 single 1.50150
  192  197  -2.274 double 1.56821
  193  198  -2.274 double 1.46425
  193  199  -2.274 single 1.46425
  194  199  -2.274 double 1.50150
  194  200  -2.274 single 1.56821
  195  200  -2.274 double 1.64201
  195  196  -2.274 single 1.69077
}
