general{method='cue-ccsd',jobtype='polarizability'}
system{memory=2048,nproc=6,verbose=3,allow-restart,email-send,
email-send-tared,email-reciver='abzakharov@karazin.ua'}
coupled-cluster{t3-step=1.E-6}
cue{t2-limit=2,spare-algorithm}
polariz{step=0.015}
diis{enabled,steps=20}

molecule{
  nanotore[5_16]
     320
     480
     160
     160

 C       -1.935574665816      -14.699493210036        0.000000000000   -11.160    11.130  1.0
 C       -1.749502186411      -13.286387740177       -1.961761953822   -11.160    11.130  1.0
 C       -1.448430590363      -10.999935060256       -1.212435565298   -11.160    11.130  1.0
 C       -1.448430590363      -10.999935060256        1.212435565298   -11.160    11.130  1.0
 C       -1.749502186411      -13.286387740177        1.961761953822   -11.160    11.130  1.0
 C       -2.815628588132      -14.155120796273       -1.212435565298   -11.160    11.130  1.0
 C       -2.365713337911      -11.893244090729       -1.961761953822   -11.160    11.130  1.0
 C       -2.087650421218      -10.495327408341        0.000000000000   -11.160    11.130  1.0
 C       -2.365713337911      -11.893244090729        1.961761953822   -11.160    11.130  1.0
 C       -2.815628588132      -14.155120796273        1.212435565298   -11.160    11.130  1.0
 C       -4.639474071016      -13.666400017845       -1.212435565298   -11.160    11.130  1.0
 C       -3.898122691665      -11.482617039663       -1.961761953822   -11.160    11.130  1.0
 C       -3.439942341619      -10.132964935093        0.000000000000   -11.160    11.130  1.0
 C       -3.898122691665      -11.482617039663        1.961761953822   -11.160    11.130  1.0
 C       -4.639474071016      -13.666400017845        1.212435565298   -11.160    11.130  1.0
 C       -5.673810065568      -13.697789210624        0.000000000000   -11.160    11.130  1.0
 C       -5.128370034131      -12.380980489267       -1.961761953822   -11.160    11.130  1.0
 C       -4.245829524440      -10.250339221428       -1.212435565298   -11.160    11.130  1.0
 C       -4.245829524440      -10.250339221428        1.212435565298   -11.160    11.130  1.0
 C       -5.128370034131      -12.380980489267        1.961761953822   -11.160    11.130  1.0
 C       -7.413490333039      -12.839848558328        0.000000000000   -11.160    11.130  1.0
 C       -6.700809726253      -11.605516192532       -1.961761953822   -11.160    11.130  1.0
 C       -5.547668281352       -9.608324471261       -1.212435565298   -11.160    11.130  1.0
 C       -5.547668281352       -9.608324471261        1.212435565298   -11.160    11.130  1.0
 C       -6.700809726253      -11.605516192532        1.961761953822   -11.160    11.130  1.0
 C       -8.018231835589      -12.000131971530       -1.212435565298   -11.160    11.130  1.0
 C       -6.736981603281      -10.082605490442       -1.961761953822   -11.160    11.130  1.0
 C       -5.945125411621       -8.897508950801        0.000000000000   -11.160    11.130  1.0
 C       -6.736981603281      -10.082605490442        1.961761953822   -11.160    11.130  1.0
 C       -8.018231835589      -12.000131971530        1.212435565298   -11.160    11.130  1.0
 C       -9.516220002732      -10.850657397733       -1.212435565298   -11.160    11.130  1.0
 C       -7.995603071319       -9.116807891184       -1.961761953822   -11.160    11.130  1.0
 C       -7.055810123837       -8.045229964759        0.000000000000   -11.160    11.130  1.0
 C       -7.995603071319       -9.116807891184        1.961761953822   -11.160    11.130  1.0
 C       -9.516220002732      -10.850657397733        1.212435565298   -11.160    11.130  1.0
 C      -10.483833981870      -10.483833981870        0.000000000000   -11.160    11.130  1.0
 C       -9.475992219356       -9.475992219356       -1.961761953822   -11.160    11.130  1.0
 C       -7.845269992325       -7.845269992325       -1.212435565298   -11.160    11.130  1.0
 C       -7.845269992325       -7.845269992325        1.212435565298   -11.160    11.130  1.0
 C       -9.475992219356       -9.475992219356        1.961761953822   -11.160    11.130  1.0
 C      -11.762769300513       -9.025453357131        0.000000000000   -11.160    11.130  1.0
 C      -10.631979728265       -8.157810008841       -1.961761953822   -11.160    11.130  1.0
 C       -8.802323766243       -6.753933581195       -1.212435565298   -11.160    11.130  1.0
 C       -8.802323766243       -6.753933581195        1.212435565298   -11.160    11.130  1.0
 C      -10.631979728265       -8.157810008841        1.961761953822   -11.160    11.130  1.0
 C      -12.000131971530       -8.018231835589       -1.212435565298   -11.160    11.130  1.0
 C      -10.082605490442       -6.736981603281       -1.961761953822   -11.160    11.130  1.0
 C       -8.897508950801       -5.945125411621        0.000000000000   -11.160    11.130  1.0
 C      -10.082605490442       -6.736981603281        1.961761953822   -11.160    11.130  1.0
 C      -12.000131971530       -8.018231835589        1.212435565298   -11.160    11.130  1.0
 C      -12.944207703781       -6.383000550271       -1.212435565298   -11.160    11.130  1.0
 C      -10.875825363687       -5.363047385341       -1.961761953822   -11.160    11.130  1.0
 C       -9.597494775779       -4.732681662481        0.000000000000   -11.160    11.130  1.0
 C      -10.875825363687       -5.363047385341        1.961761953822   -11.160    11.130  1.0
 C      -12.944207703781       -6.383000550271        1.212435565298   -11.160    11.130  1.0
 C      -13.697789210624       -5.673810065568        0.000000000000   -11.160    11.130  1.0
 C      -12.380980489267       -5.128370034131       -1.961761953822   -11.160    11.130  1.0
 C      -10.250339221428       -4.245829524440       -1.212435565298   -11.160    11.130  1.0
 C      -10.250339221428       -4.245829524440        1.212435565298   -11.160    11.130  1.0
 C      -12.380980489267       -5.128370034131        1.961761953822   -11.160    11.130  1.0
 C      -14.321273271754       -3.837014698249        0.000000000000   -11.160    11.130  1.0
 C      -12.944527195784       -3.468151202035       -1.961761953822   -11.160    11.130  1.0
 C      -10.716905250987       -2.871317527952       -1.212435565298   -11.160    11.130  1.0
 C      -10.716905250987       -2.871317527952        1.212435565298   -11.160    11.130  1.0
 C      -12.944527195784       -3.468151202035        1.961761953822   -11.160    11.130  1.0
 C      -14.155120796273       -2.815628588132       -1.212435565298   -11.160    11.130  1.0
 C      -11.893244090729       -2.365713337911       -1.961761953822   -11.160    11.130  1.0
 C      -10.495327408341       -2.087650421218        0.000000000000   -11.160    11.130  1.0
 C      -11.893244090729       -2.365713337911        1.961761953822   -11.160    11.130  1.0
 C      -14.155120796273       -2.815628588132        1.212435565298   -11.160    11.130  1.0
 C      -14.401557121464       -0.943589731074       -1.212435565298   -11.160    11.130  1.0
 C      -12.100301834037       -0.792811531225       -1.961761953822   -11.160    11.130  1.0
 C      -10.678047849616       -0.699625478956        0.000000000000   -11.160    11.130  1.0
 C      -12.100301834037       -0.792811531225        1.961761953822   -11.160    11.130  1.0
 C      -14.401557121464       -0.943589731074        1.212435565298   -11.160    11.130  1.0
 C      -14.826380202829        0.000000000000        0.000000000000   -11.160    11.130  1.0
 C      -13.401076713555        0.000000000000       -1.961761953822   -11.160    11.130  1.0
 C      -11.094887223625        0.000000000000       -1.212435565298   -11.160    11.130  1.0
 C      -11.094887223625        0.000000000000        1.212435565298   -11.160    11.130  1.0
 C      -13.401076713555        0.000000000000        1.961761953822   -11.160    11.130  1.0
 C      -14.699493210036        1.935574665816        0.000000000000   -11.160    11.130  1.0
 C      -13.286387740177        1.749502186411       -1.961761953822   -11.160    11.130  1.0
 C      -10.999935060256        1.448430590363       -1.212435565298   -11.160    11.130  1.0
 C      -10.999935060256        1.448430590363        1.212435565298   -11.160    11.130  1.0
 C      -13.286387740177        1.749502186411        1.961761953822   -11.160    11.130  1.0
 C      -14.155120796273        2.815628588132       -1.212435565298   -11.160    11.130  1.0
 C      -11.893244090729        2.365713337911       -1.961761953822   -11.160    11.130  1.0
 C      -10.495327408341        2.087650421218        0.000000000000   -11.160    11.130  1.0
 C      -11.893244090729        2.365713337911        1.961761953822   -11.160    11.130  1.0
 C      -14.155120796273        2.815628588132        1.212435565298   -11.160    11.130  1.0
 C      -13.666400017845        4.639474071016       -1.212435565298   -11.160    11.130  1.0
 C      -11.482617039663        3.898122691665       -1.961761953822   -11.160    11.130  1.0
 C      -10.132964935093        3.439942341619        0.000000000000   -11.160    11.130  1.0
 C      -11.482617039663        3.898122691665        1.961761953822   -11.160    11.130  1.0
 C      -13.666400017845        4.639474071016        1.212435565298   -11.160    11.130  1.0
 C      -13.697789210624        5.673810065568        0.000000000000   -11.160    11.130  1.0
 C      -12.380980489267        5.128370034131       -1.961761953822   -11.160    11.130  1.0
 C      -10.250339221428        4.245829524440       -1.212435565298   -11.160    11.130  1.0
 C      -10.250339221428        4.245829524440        1.212435565298   -11.160    11.130  1.0
 C      -12.380980489267        5.128370034131        1.961761953822   -11.160    11.130  1.0
 C      -12.839848558328        7.413490333039        0.000000000000   -11.160    11.130  1.0
 C      -11.605516192532        6.700809726253       -1.961761953822   -11.160    11.130  1.0
 C       -9.608324471261        5.547668281352       -1.212435565298   -11.160    11.130  1.0
 C       -9.608324471261        5.547668281352        1.212435565298   -11.160    11.130  1.0
 C      -11.605516192532        6.700809726253        1.961761953822   -11.160    11.130  1.0
 C      -12.000131971530        8.018231835589       -1.212435565298   -11.160    11.130  1.0
 C      -10.082605490442        6.736981603281       -1.961761953822   -11.160    11.130  1.0
 C       -8.897508950801        5.945125411621        0.000000000000   -11.160    11.130  1.0
 C      -10.082605490442        6.736981603281        1.961761953822   -11.160    11.130  1.0
 C      -12.000131971530        8.018231835589        1.212435565298   -11.160    11.130  1.0
 C      -10.850657397733        9.516220002732       -1.212435565298   -11.160    11.130  1.0
 C       -9.116807891184        7.995603071319       -1.961761953822   -11.160    11.130  1.0
 C       -8.045229964759        7.055810123837        0.000000000000   -11.160    11.130  1.0
 C       -9.116807891184        7.995603071319        1.961761953822   -11.160    11.130  1.0
 C      -10.850657397733        9.516220002732        1.212435565298   -11.160    11.130  1.0
 C      -10.483833981870       10.483833981870        0.000000000000   -11.160    11.130  1.0
 C       -9.475992219356        9.475992219356       -1.961761953822   -11.160    11.130  1.0
 C       -7.845269992325        7.845269992325       -1.212435565298   -11.160    11.130  1.0
 C       -7.845269992325        7.845269992325        1.212435565298   -11.160    11.130  1.0
 C       -9.475992219356        9.475992219356        1.961761953822   -11.160    11.130  1.0
 C       -9.025453357131       11.762769300513        0.000000000000   -11.160    11.130  1.0
 C       -8.157810008841       10.631979728265       -1.961761953822   -11.160    11.130  1.0
 C       -6.753933581195        8.802323766243       -1.212435565298   -11.160    11.130  1.0
 C       -6.753933581195        8.802323766243        1.212435565298   -11.160    11.130  1.0
 C       -8.157810008841       10.631979728265        1.961761953822   -11.160    11.130  1.0
 C       -8.018231835589       12.000131971530       -1.212435565298   -11.160    11.130  1.0
 C       -6.736981603281       10.082605490442       -1.961761953822   -11.160    11.130  1.0
 C       -5.945125411621        8.897508950801        0.000000000000   -11.160    11.130  1.0
 C       -6.736981603281       10.082605490442        1.961761953822   -11.160    11.130  1.0
 C       -8.018231835589       12.000131971530        1.212435565298   -11.160    11.130  1.0
 C       -6.383000550271       12.944207703781       -1.212435565298   -11.160    11.130  1.0
 C       -5.363047385341       10.875825363687       -1.961761953822   -11.160    11.130  1.0
 C       -4.732681662481        9.597494775779        0.000000000000   -11.160    11.130  1.0
 C       -5.363047385341       10.875825363687        1.961761953822   -11.160    11.130  1.0
 C       -6.383000550271       12.944207703781        1.212435565298   -11.160    11.130  1.0
 C       -5.673810065568       13.697789210624        0.000000000000   -11.160    11.130  1.0
 C       -5.128370034131       12.380980489267       -1.961761953822   -11.160    11.130  1.0
 C       -4.245829524440       10.250339221428       -1.212435565298   -11.160    11.130  1.0
 C       -4.245829524440       10.250339221428        1.212435565298   -11.160    11.130  1.0
 C       -5.128370034131       12.380980489267        1.961761953822   -11.160    11.130  1.0
 C       -3.837014698249       14.321273271754        0.000000000000   -11.160    11.130  1.0
 C       -3.468151202035       12.944527195784       -1.961761953822   -11.160    11.130  1.0
 C       -2.871317527952       10.716905250987       -1.212435565298   -11.160    11.130  1.0
 C       -2.871317527952       10.716905250987        1.212435565298   -11.160    11.130  1.0
 C       -3.468151202035       12.944527195784        1.961761953822   -11.160    11.130  1.0
 C       -2.815628588132       14.155120796273       -1.212435565298   -11.160    11.130  1.0
 C       -2.365713337911       11.893244090729       -1.961761953822   -11.160    11.130  1.0
 C       -2.087650421218       10.495327408341        0.000000000000   -11.160    11.130  1.0
 C       -2.365713337911       11.893244090729        1.961761953822   -11.160    11.130  1.0
 C       -2.815628588132       14.155120796273        1.212435565298   -11.160    11.130  1.0
 C       -0.943589731074       14.401557121464       -1.212435565298   -11.160    11.130  1.0
 C       -0.792811531225       12.100301834037       -1.961761953822   -11.160    11.130  1.0
 C       -0.699625478956       10.678047849616        0.000000000000   -11.160    11.130  1.0
 C       -0.792811531225       12.100301834037        1.961761953822   -11.160    11.130  1.0
 C       -0.943589731074       14.401557121464        1.212435565298   -11.160    11.130  1.0
 C        0.000000000000       14.826380202829        0.000000000000   -11.160    11.130  1.0
 C        0.000000000000       13.401076713555       -1.961761953822   -11.160    11.130  1.0
 C        0.000000000000       11.094887223625       -1.212435565298   -11.160    11.130  1.0
 C        0.000000000000       11.094887223625        1.212435565298   -11.160    11.130  1.0
 C        0.000000000000       13.401076713555        1.961761953822   -11.160    11.130  1.0
 C        1.935574665816       14.699493210036        0.000000000000   -11.160    11.130  1.0
 C        1.749502186411       13.286387740177       -1.961761953822   -11.160    11.130  1.0
 C        1.448430590363       10.999935060256       -1.212435565298   -11.160    11.130  1.0
 C        1.448430590363       10.999935060256        1.212435565298   -11.160    11.130  1.0
 C        1.749502186411       13.286387740177        1.961761953822   -11.160    11.130  1.0
 C        2.815628588132       14.155120796273       -1.212435565298   -11.160    11.130  1.0
 C        2.365713337911       11.893244090729       -1.961761953822   -11.160    11.130  1.0
 C        2.087650421218       10.495327408341        0.000000000000   -11.160    11.130  1.0
 C        2.365713337911       11.893244090729        1.961761953822   -11.160    11.130  1.0
 C        2.815628588132       14.155120796273        1.212435565298   -11.160    11.130  1.0
 C        4.639474071016       13.666400017845       -1.212435565298   -11.160    11.130  1.0
 C        3.898122691665       11.482617039663       -1.961761953822   -11.160    11.130  1.0
 C        3.439942341619       10.132964935093        0.000000000000   -11.160    11.130  1.0
 C        3.898122691665       11.482617039663        1.961761953822   -11.160    11.130  1.0
 C        4.639474071016       13.666400017845        1.212435565298   -11.160    11.130  1.0
 C        5.673810065568       13.697789210624        0.000000000000   -11.160    11.130  1.0
 C        5.128370034131       12.380980489267       -1.961761953822   -11.160    11.130  1.0
 C        4.245829524440       10.250339221428       -1.212435565298   -11.160    11.130  1.0
 C        4.245829524440       10.250339221428        1.212435565298   -11.160    11.130  1.0
 C        5.128370034131       12.380980489267        1.961761953822   -11.160    11.130  1.0
 C        7.413490333039       12.839848558328        0.000000000000   -11.160    11.130  1.0
 C        6.700809726253       11.605516192532       -1.961761953822   -11.160    11.130  1.0
 C        5.547668281352        9.608324471261       -1.212435565298   -11.160    11.130  1.0
 C        5.547668281352        9.608324471261        1.212435565298   -11.160    11.130  1.0
 C        6.700809726253       11.605516192532        1.961761953822   -11.160    11.130  1.0
 C        8.018231835589       12.000131971530       -1.212435565298   -11.160    11.130  1.0
 C        6.736981603281       10.082605490442       -1.961761953822   -11.160    11.130  1.0
 C        5.945125411621        8.897508950801        0.000000000000   -11.160    11.130  1.0
 C        6.736981603281       10.082605490442        1.961761953822   -11.160    11.130  1.0
 C        8.018231835589       12.000131971530        1.212435565298   -11.160    11.130  1.0
 C        9.516220002732       10.850657397733       -1.212435565298   -11.160    11.130  1.0
 C        7.995603071319        9.116807891184       -1.961761953822   -11.160    11.130  1.0
 C        7.055810123837        8.045229964759        0.000000000000   -11.160    11.130  1.0
 C        7.995603071319        9.116807891184        1.961761953822   -11.160    11.130  1.0
 C        9.516220002732       10.850657397733        1.212435565298   -11.160    11.130  1.0
 C       10.483833981870       10.483833981870        0.000000000000   -11.160    11.130  1.0
 C        9.475992219356        9.475992219356       -1.961761953822   -11.160    11.130  1.0
 C        7.845269992325        7.845269992325       -1.212435565298   -11.160    11.130  1.0
 C        7.845269992325        7.845269992325        1.212435565298   -11.160    11.130  1.0
 C        9.475992219356        9.475992219356        1.961761953822   -11.160    11.130  1.0
 C       11.762769300513        9.025453357131        0.000000000000   -11.160    11.130  1.0
 C       10.631979728265        8.157810008841       -1.961761953822   -11.160    11.130  1.0
 C        8.802323766243        6.753933581195       -1.212435565298   -11.160    11.130  1.0
 C        8.802323766243        6.753933581195        1.212435565298   -11.160    11.130  1.0
 C       10.631979728265        8.157810008841        1.961761953822   -11.160    11.130  1.0
 C       12.000131971530        8.018231835589       -1.212435565298   -11.160    11.130  1.0
 C       10.082605490442        6.736981603281       -1.961761953822   -11.160    11.130  1.0
 C        8.897508950801        5.945125411621        0.000000000000   -11.160    11.130  1.0
 C       10.082605490442        6.736981603281        1.961761953822   -11.160    11.130  1.0
 C       12.000131971530        8.018231835589        1.212435565298   -11.160    11.130  1.0
 C       12.944207703781        6.383000550271       -1.212435565298   -11.160    11.130  1.0
 C       10.875825363687        5.363047385341       -1.961761953822   -11.160    11.130  1.0
 C        9.597494775779        4.732681662481        0.000000000000   -11.160    11.130  1.0
 C       10.875825363687        5.363047385341        1.961761953822   -11.160    11.130  1.0
 C       12.944207703781        6.383000550271        1.212435565298   -11.160    11.130  1.0
 C       13.697789210624        5.673810065568        0.000000000000   -11.160    11.130  1.0
 C       12.380980489267        5.128370034131       -1.961761953822   -11.160    11.130  1.0
 C       10.250339221428        4.245829524440       -1.212435565298   -11.160    11.130  1.0
 C       10.250339221428        4.245829524440        1.212435565298   -11.160    11.130  1.0
 C       12.380980489267        5.128370034131        1.961761953822   -11.160    11.130  1.0
 C       14.321273271754        3.837014698249        0.000000000000   -11.160    11.130  1.0
 C       12.944527195784        3.468151202035       -1.961761953822   -11.160    11.130  1.0
 C       10.716905250987        2.871317527952       -1.212435565298   -11.160    11.130  1.0
 C       10.716905250987        2.871317527952        1.212435565298   -11.160    11.130  1.0
 C       12.944527195784        3.468151202035        1.961761953822   -11.160    11.130  1.0
 C       14.155120796273        2.815628588132       -1.212435565298   -11.160    11.130  1.0
 C       11.893244090729        2.365713337911       -1.961761953822   -11.160    11.130  1.0
 C       10.495327408341        2.087650421218        0.000000000000   -11.160    11.130  1.0
 C       11.893244090729        2.365713337911        1.961761953822   -11.160    11.130  1.0
 C       14.155120796273        2.815628588132        1.212435565298   -11.160    11.130  1.0
 C       14.401557121464        0.943589731074       -1.212435565298   -11.160    11.130  1.0
 C       12.100301834037        0.792811531225       -1.961761953822   -11.160    11.130  1.0
 C       10.678047849616        0.699625478956        0.000000000000   -11.160    11.130  1.0
 C       12.100301834037        0.792811531225        1.961761953822   -11.160    11.130  1.0
 C       14.401557121464        0.943589731074        1.212435565298   -11.160    11.130  1.0
 C       14.826380202829        0.000000000000        0.000000000000   -11.160    11.130  1.0
 C       13.401076713555        0.000000000000       -1.961761953822   -11.160    11.130  1.0
 C       11.094887223625        0.000000000000       -1.212435565298   -11.160    11.130  1.0
 C       11.094887223625        0.000000000000        1.212435565298   -11.160    11.130  1.0
 C       13.401076713555        0.000000000000        1.961761953822   -11.160    11.130  1.0
 C       14.699493210036       -1.935574665816        0.000000000000   -11.160    11.130  1.0
 C       13.286387740177       -1.749502186411       -1.961761953822   -11.160    11.130  1.0
 C       10.999935060256       -1.448430590363       -1.212435565298   -11.160    11.130  1.0
 C       10.999935060256       -1.448430590363        1.212435565298   -11.160    11.130  1.0
 C       13.286387740177       -1.749502186411        1.961761953822   -11.160    11.130  1.0
 C       14.155120796273       -2.815628588132       -1.212435565298   -11.160    11.130  1.0
 C       11.893244090729       -2.365713337911       -1.961761953822   -11.160    11.130  1.0
 C       10.495327408341       -2.087650421218        0.000000000000   -11.160    11.130  1.0
 C       11.893244090729       -2.365713337911        1.961761953822   -11.160    11.130  1.0
 C       14.155120796273       -2.815628588132        1.212435565298   -11.160    11.130  1.0
 C       13.666400017845       -4.639474071016       -1.212435565298   -11.160    11.130  1.0
 C       11.482617039663       -3.898122691665       -1.961761953822   -11.160    11.130  1.0
 C       10.132964935093       -3.439942341619        0.000000000000   -11.160    11.130  1.0
 C       11.482617039663       -3.898122691665        1.961761953822   -11.160    11.130  1.0
 C       13.666400017845       -4.639474071016        1.212435565298   -11.160    11.130  1.0
 C       13.697789210624       -5.673810065568        0.000000000000   -11.160    11.130  1.0
 C       12.380980489267       -5.128370034131       -1.961761953822   -11.160    11.130  1.0
 C       10.250339221428       -4.245829524440       -1.212435565298   -11.160    11.130  1.0
 C       10.250339221428       -4.245829524440        1.212435565298   -11.160    11.130  1.0
 C       12.380980489267       -5.128370034131        1.961761953822   -11.160    11.130  1.0
 C       12.839848558328       -7.413490333039        0.000000000000   -11.160    11.130  1.0
 C       11.605516192532       -6.700809726253       -1.961761953822   -11.160    11.130  1.0
 C        9.608324471261       -5.547668281352       -1.212435565298   -11.160    11.130  1.0
 C        9.608324471261       -5.547668281352        1.212435565298   -11.160    11.130  1.0
 C       11.605516192532       -6.700809726253        1.961761953822   -11.160    11.130  1.0
 C       12.000131971530       -8.018231835589       -1.212435565298   -11.160    11.130  1.0
 C       10.082605490442       -6.736981603281       -1.961761953822   -11.160    11.130  1.0
 C        8.897508950801       -5.945125411621        0.000000000000   -11.160    11.130  1.0
 C       10.082605490442       -6.736981603281        1.961761953822   -11.160    11.130  1.0
 C       12.000131971530       -8.018231835589        1.212435565298   -11.160    11.130  1.0
 C       10.850657397733       -9.516220002732       -1.212435565298   -11.160    11.130  1.0
 C        9.116807891184       -7.995603071319       -1.961761953822   -11.160    11.130  1.0
 C        8.045229964759       -7.055810123837        0.000000000000   -11.160    11.130  1.0
 C        9.116807891184       -7.995603071319        1.961761953822   -11.160    11.130  1.0
 C       10.850657397733       -9.516220002732        1.212435565298   -11.160    11.130  1.0
 C       10.483833981870      -10.483833981870        0.000000000000   -11.160    11.130  1.0
 C        9.475992219356       -9.475992219356       -1.961761953822   -11.160    11.130  1.0
 C        7.845269992325       -7.845269992325       -1.212435565298   -11.160    11.130  1.0
 C        7.845269992325       -7.845269992325        1.212435565298   -11.160    11.130  1.0
 C        9.475992219356       -9.475992219356        1.961761953822   -11.160    11.130  1.0
 C        9.025453357131      -11.762769300513        0.000000000000   -11.160    11.130  1.0
 C        8.157810008841      -10.631979728265       -1.961761953822   -11.160    11.130  1.0
 C        6.753933581195       -8.802323766243       -1.212435565298   -11.160    11.130  1.0
 C        6.753933581195       -8.802323766243        1.212435565298   -11.160    11.130  1.0
 C        8.157810008841      -10.631979728265        1.961761953822   -11.160    11.130  1.0
 C        8.018231835589      -12.000131971530       -1.212435565298   -11.160    11.130  1.0
 C        6.736981603281      -10.082605490442       -1.961761953822   -11.160    11.130  1.0
 C        5.945125411621       -8.897508950801        0.000000000000   -11.160    11.130  1.0
 C        6.736981603281      -10.082605490442        1.961761953822   -11.160    11.130  1.0
 C        8.018231835589      -12.000131971530        1.212435565298   -11.160    11.130  1.0
 C        6.383000550271      -12.944207703781       -1.212435565298   -11.160    11.130  1.0
 C        5.363047385341      -10.875825363687       -1.961761953822   -11.160    11.130  1.0
 C        4.732681662481       -9.597494775779        0.000000000000   -11.160    11.130  1.0
 C        5.363047385341      -10.875825363687        1.961761953822   -11.160    11.130  1.0
 C        6.383000550271      -12.944207703781        1.212435565298   -11.160    11.130  1.0
 C        5.673810065568      -13.697789210624        0.000000000000   -11.160    11.130  1.0
 C        5.128370034131      -12.380980489267       -1.961761953822   -11.160    11.130  1.0
 C        4.245829524440      -10.250339221428       -1.212435565298   -11.160    11.130  1.0
 C        4.245829524440      -10.250339221428        1.212435565298   -11.160    11.130  1.0
 C        5.128370034131      -12.380980489267        1.961761953822   -11.160    11.130  1.0
 C        3.837014698249      -14.321273271754        0.000000000000   -11.160    11.130  1.0
 C        3.468151202035      -12.944527195784       -1.961761953822   -11.160    11.130  1.0
 C        2.871317527952      -10.716905250987       -1.212435565298   -11.160    11.130  1.0
 C        2.871317527952      -10.716905250987        1.212435565298   -11.160    11.130  1.0
 C        3.468151202035      -12.944527195784        1.961761953822   -11.160    11.130  1.0
 C        2.815628588132      -14.155120796273       -1.212435565298   -11.160    11.130  1.0
 C        2.365713337911      -11.893244090729       -1.961761953822   -11.160    11.130  1.0
 C        2.087650421218      -10.495327408341        0.000000000000   -11.160    11.130  1.0
 C        2.365713337911      -11.893244090729        1.961761953822   -11.160    11.130  1.0
 C        2.815628588132      -14.155120796273        1.212435565298   -11.160    11.130  1.0
 C        0.943589731074      -14.401557121464       -1.212435565298   -11.160    11.130  1.0
 C        0.792811531225      -12.100301834037       -1.961761953822   -11.160    11.130  1.0