general{method='cue-ccsd',jobtype='polarizability'}
system{memory=2048,nproc=4,verbose=3,allow-restart,email-send,
email-send-tared,email-reciver='abzakharov@karazin.ua'}
coupled-cluster{t3-step=1.E-6}
cue{t2-limit=2,spare-algorithm}

molecule{
  nanotore[7_20]
     560
     840
     280
     280

 1       -1.982331696712      -18.858455052528        0.000000000000   -11.160    11.130  1.0
 1       -1.872343507008      -17.812107796278       -2.184733397343   -11.160    11.130  1.0
 1       -1.625202288095      -15.460986853080       -2.724317986047   -11.160    11.130  1.0
 1       -1.427010418575      -13.575534247287       -1.212435565298   -11.160    11.130  1.0
 1       -1.427010418575      -13.575534247287        1.212435565298   -11.160    11.130  1.0
 1       -1.625202288095      -15.460986853080        2.724317986047   -11.160    11.130  1.0
 1       -1.872343507008      -17.812107796278        2.184733397343   -11.160    11.130  1.0
 1       -2.923075914129      -18.455574980342       -1.212435565298   -11.160    11.130  1.0
 1       -2.626501105501      -16.583075333154       -2.724317986047   -11.160    11.130  1.0
 1       -2.256678368166      -14.248106465142       -2.184733397343   -11.160    11.130  1.0
 1       -2.092091766346      -13.208947558605        0.000000000000   -11.160    11.130  1.0
 1       -2.256678368166      -14.248106465142        2.184733397343   -11.160    11.130  1.0
 1       -2.626501105501      -16.583075333154        2.724317986047   -11.160    11.130  1.0
 1       -2.923075914129      -18.455574980342        1.212435565298   -11.160    11.130  1.0
 1       -4.836411907199      -18.048870893180       -1.212435565298   -11.160    11.130  1.0
 1       -4.345710338728      -16.217635376778       -2.724317986047   -11.160    11.130  1.0
 1       -3.733815491333      -13.934122038222       -2.184733397343   -11.160    11.130  1.0
 1       -3.461496665482      -12.917862996627        0.000000000000   -11.160    11.130  1.0
 1       -3.733815491333      -13.934122038222        2.184733397343   -11.160    11.130  1.0
 1       -4.345710338728      -16.217635376778        2.724317986047   -11.160    11.130  1.0
 1       -4.836411907199      -18.048870893180        1.212435565298   -11.160    11.130  1.0
 1       -5.859690427304      -18.034272761056        0.000000000000   -11.160    11.130  1.0
 1       -5.534569892032      -17.033654642052       -2.184733397343   -11.160    11.130  1.0
 1       -4.804030680526      -14.785286137539       -2.724317986047   -11.160    11.130  1.0
 1       -4.218183719334      -12.982234589775       -1.212435565298   -11.160    11.130  1.0
 1       -4.218183719334      -12.982234589775        1.212435565298   -11.160    11.130  1.0
 1       -4.804030680526      -14.785286137539        2.724317986047   -11.160    11.130  1.0
 1       -5.534569892032      -17.033654642052        2.184733397343   -11.160    11.130  1.0
 1       -7.712892576503      -17.322882382194        0.000000000000   -11.160    11.130  1.0
 1       -7.284948507772      -16.361735225629       -2.184733397343   -11.160    11.130  1.0
 1       -6.323366913800      -14.202057168657       -2.724317986047   -11.160    11.130  1.0
 1       -5.552238347538      -12.470129837581       -1.212435565298   -11.160    11.130  1.0
 1       -5.552238347538      -12.470129837581        1.212435565298   -11.160    11.130  1.0
 1       -6.323366913800      -14.202057168657        2.724317986047   -11.160    11.130  1.0
 1       -7.284948507772      -16.361735225629        2.184733397343   -11.160    11.130  1.0
 1       -8.483096705644      -16.649014713714       -1.212435565298   -11.160    11.130  1.0
 1       -7.622403088388      -14.959808378465       -2.724317986047   -11.160    11.130  1.0
 1       -6.549135702619      -12.853402531939       -2.184733397343   -11.160    11.130  1.0
 1       -6.071486780487      -11.915963739419        0.000000000000   -11.160    11.130  1.0
 1       -6.549135702619      -12.853402531939        2.184733397343   -11.160    11.130  1.0
 1       -7.622403088388      -14.959808378465        2.724317986047   -11.160    11.130  1.0
 1       -8.483096705644      -16.649014713714        1.212435565298   -11.160    11.130  1.0
 1      -10.177108895101      -15.670962803607       -1.212435565298   -11.160    11.130  1.0
 1       -9.144541075580      -14.080989456686       -2.724317986047   -11.160    11.130  1.0
 1       -7.856950065181      -12.098325122620       -2.184733397343   -11.160    11.130  1.0
 1       -7.283918156806      -11.215956483944        0.000000000000   -11.160    11.130  1.0
 1       -7.856950065181      -12.098325122620        2.184733397343   -11.160    11.130  1.0
 1       -9.144541075580      -14.080989456686        2.724317986047   -11.160    11.130  1.0
 1      -10.177108895101      -15.670962803607        1.212435565298   -11.160    11.130  1.0
 1      -11.145793528719      -15.340868702233        0.000000000000   -11.160    11.130  1.0
 1      -10.527377521415      -14.489692090451       -2.184733397343   -11.160    11.130  1.0
 1       -9.137809366392      -12.577115604614       -2.724317986047   -11.160    11.130  1.0
 1       -8.023462226405      -11.043348348008       -1.212435565298   -11.160    11.130  1.0
 1       -8.023462226405      -11.043348348008        1.212435565298   -11.160    11.130  1.0
 1       -9.137809366392      -12.577115604614        2.724317986047   -11.160    11.130  1.0
 1      -10.527377521415      -14.489692090451        2.184733397343   -11.160    11.130  1.0
 1      -12.688461792024      -14.091625288672        0.000000000000   -11.160    11.130  1.0
 1      -11.984451991373      -13.309762012182       -2.184733397343   -11.160    11.130  1.0
 1      -10.402556328494      -11.552931177015       -2.724317986047   -11.160    11.130  1.0
 1       -9.133974502325      -10.144062234868       -1.212435565298   -11.160    11.130  1.0
 1       -9.133974502325      -10.144062234868        1.212435565298   -11.160    11.130  1.0
 1      -10.402556328494      -11.552931177015        2.724317986047   -11.160    11.130  1.0
 1      -11.984451991373      -13.309762012182        2.184733397343   -11.160    11.130  1.0
 1      -13.212732886401      -13.212732886401       -1.212435565298   -11.160    11.130  1.0
 1      -11.872171148578      -11.872171148578       -2.724317986047   -11.160    11.130  1.0
 1      -10.200518003988      -10.200518003988       -2.184733397343   -11.160    11.130  1.0
 1       -9.456562366018       -9.456562366018        0.000000000000   -11.160    11.130  1.0
 1      -10.200518003988      -10.200518003988        2.184733397343   -11.160    11.130  1.0
 1      -11.872171148578      -11.872171148578        2.724317986047   -11.160    11.130  1.0
 1      -13.212732886401      -13.212732886401        1.212435565298   -11.160    11.130  1.0
 1      -14.521599556264      -11.759071688798       -1.212435565298   -11.160    11.130  1.0
 1      -13.048240418189      -10.565998180550       -2.724317986047   -11.160    11.130  1.0
 1      -11.210991624059       -9.078259850029       -2.184733397343   -11.160    11.130  1.0
 1      -10.393338988899       -8.416154004449        0.000000000000   -11.160    11.130  1.0
 1      -11.210991624059       -9.078259850029        2.184733397343   -11.160    11.130  1.0
 1      -13.048240418189      -10.565998180550        2.724317986047   -11.160    11.130  1.0
 1      -14.521599556264      -11.759071688798        1.212435565298   -11.160    11.130  1.0
 1      -15.340868702233      -11.145793528719        0.000000000000   -11.160    11.130  1.0
 1      -14.489692090451      -10.527377521415       -2.184733397343   -11.160    11.130  1.0
 1      -12.577115604614       -9.137809366392       -2.724317986047   -11.160    11.130  1.0
 1      -11.043348348008       -8.023462226405       -1.212435565298   -11.160    11.130  1.0
 1      -11.043348348008       -8.023462226405        1.212435565298   -11.160    11.130  1.0
 1      -12.577115604614       -9.137809366392        2.724317986047   -11.160    11.130  1.0
 1      -14.489692090451      -10.527377521415        2.184733397343   -11.160    11.130  1.0
 1      -16.421995961630       -9.480981729768        0.000000000000   -11.160    11.130  1.0
 1      -15.510833813473       -8.954936558419       -2.184733397343   -11.160    11.130  1.0
 1      -13.463471050883       -7.772923787762       -2.724317986047   -11.160    11.130  1.0
 1      -11.821613592681       -6.825023142769       -1.212435565298   -11.160    11.130  1.0
 1      -11.821613592681       -6.825023142769        1.212435565298   -11.160    11.130  1.0
 1      -13.463471050883       -7.772923787762        2.724317986047   -11.160    11.130  1.0
 1      -15.510833813473       -8.954936558419        2.184733397343   -11.160    11.130  1.0
 1      -16.649014713714       -8.483096705644       -1.212435565298   -11.160    11.130  1.0
 1      -14.959808378465       -7.622403088388       -2.724317986047   -11.160    11.130  1.0
 1      -12.853402531939       -6.549135702619       -2.184733397343   -11.160    11.130  1.0
 1      -11.915963739419       -6.071486780487        0.000000000000   -11.160    11.130  1.0
 1      -12.853402531939       -6.549135702619        2.184733397343   -11.160    11.130  1.0
 1      -14.959808378465       -7.622403088388        2.724317986047   -11.160    11.130  1.0
 1      -16.649014713714       -8.483096705644        1.212435565298   -11.160    11.130  1.0
 1      -17.444614874925       -6.696120706820       -1.212435565298   -11.160    11.130  1.0
 1      -15.674687076229       -6.016733384865       -2.724317986047   -11.160    11.130  1.0
 1      -13.467623211203       -5.169551251361       -2.184733397343   -11.160    11.130  1.0
 1      -12.485387386109       -4.792519732205        0.000000000000   -11.160    11.130  1.0
 1      -13.467623211203       -5.169551251361        2.184733397343   -11.160    11.130  1.0
 1      -15.674687076229       -6.016733384865        2.724317986047   -11.160    11.130  1.0
 1      -17.444614874925       -6.696120706820        1.212435565298   -11.160    11.130  1.0
 1      -18.034272761056       -5.859690427304        0.000000000000   -11.160    11.130  1.0
 1      -17.033654642052       -5.534569892032       -2.184733397343   -11.160    11.130  1.0
 1      -14.785286137539       -4.804030680526       -2.724317986047   -11.160    11.130  1.0
 1      -12.982234589775       -4.218183719334       -1.212435565298   -11.160    11.130  1.0
 1      -12.982234589775       -4.218183719334        1.212435565298   -11.160    11.130  1.0
 1      -14.785286137539       -4.804030680526        2.724317986047   -11.160    11.130  1.0
 1      -17.033654642052       -5.534569892032        2.184733397343   -11.160    11.130  1.0
 1      -18.548030747738       -3.942273621271        0.000000000000   -11.160    11.130  1.0
 1      -17.518907151575       -3.723539521605       -2.184733397343   -11.160    11.130  1.0
 1      -15.206487421293       -3.232048461019       -2.724317986047   -11.160    11.130  1.0
 1      -13.352070778561       -2.837903232724       -1.212435565298   -11.160    11.130  1.0
 1      -13.352070778561       -2.837903232724        1.212435565298   -11.160    11.130  1.0
 1      -15.206487421293       -3.232048461019        2.724317986047   -11.160    11.130  1.0
 1      -17.518907151575       -3.723539521605        2.184733397343   -11.160    11.130  1.0
 1      -18.455574980342       -2.923075914129       -1.212435565298   -11.160    11.130  1.0
 1      -16.583075333154       -2.626501105501       -2.724317986047   -11.160    11.130  1.0
 1      -14.248106465142       -2.256678368166       -2.184733397343   -11.160    11.130  1.0
 1      -13.208947558605       -2.092091766346        0.000000000000   -11.160    11.130  1.0
 1      -14.248106465142       -2.256678368166        2.184733397343   -11.160    11.130  1.0
 1      -16.583075333154       -2.626501105501        2.724317986047   -11.160    11.130  1.0
 1      -18.455574980342       -2.923075914129        1.212435565298   -11.160    11.130  1.0
 1      -18.660029745851       -0.977706775443       -1.212435565298   -11.160    11.130  1.0
 1      -16.766786151281       -0.878508804422       -2.724317986047   -11.160    11.130  1.0
 1      -14.405950003985       -0.754810957829       -2.184733397343   -11.160    11.130  1.0
 1      -13.355279075157       -0.699760237124        0.000000000000   -11.160    11.130  1.0
 1      -14.405950003985       -0.754810957829        2.184733397343   -11.160    11.130  1.0
 1      -16.766786151281       -0.878508804422        2.724317986047   -11.160    11.130  1.0
 1      -18.660029745851       -0.977706775443        1.212435565298   -11.160    11.130  1.0
 1      -18.962356549859        0.000000000000        0.000000000000   -11.160    11.130  1.0
 1      -17.910244396838        0.000000000000       -2.184733397343   -11.160    11.130  1.0
 1      -15.546169848176        0.000000000000       -2.724317986047   -11.160    11.130  1.0
 1      -13.650329257348        0.000000000000       -1.212435565298   -11.160    11.130  1.0
 1      -13.650329257348        0.000000000000        1.212435565298   -11.160    11.130  1.0
 1      -15.546169848176        0.000000000000        2.724317986047   -11.160    11.130  1.0
 1      -17.910244396838        0.000000000000        2.184733397343   -11.160    11.130  1.0
 1      -18.858455052528        1.982331696712        0.000000000000   -11.160    11.130  1.0
 1      -17.812107796278        1.872343507008       -2.184733397343   -11.160    11.130  1.0
 1      -15.460986853080        1.625202288095       -2.724317986047   -11.160    11.130  1.0
 1      -13.575534247287        1.427010418575       -1.212435565298   -11.160    11.130  1.0
 1      -13.575534247287        1.427010418575        1.212435565298   -11.160    11.130  1.0
 1      -15.460986853080        1.625202288095        2.724317986047   -11.160    11.130  1.0
 1      -17.812107796278        1.872343507008        2.184733397343   -11.160    11.130  1.0
 1      -18.455574980342        2.923075914129       -1.212435565298   -11.160    11.130  1.0
 1      -16.583075333154        2.626501105501       -2.724317986047   -11.160    11.130  1.0
 1      -14.248106465142        2.256678368166       -2.184733397343   -11.160    11.130  1.0
 1      -13.208947558605        2.092091766346        0.000000000000   -11.160    11.130  1.0
 1      -14.248106465142        2.256678368166        2.184733397343   -11.160    11.130  1.0
 1      -16.583075333154        2.626501105501        2.724317986047   -11.160    11.130  1.0
 1      -18.455574980342        2.923075914129        1.212435565298   -11.160    11.130  1.0
 1      -18.048870893180        4.836411907199       -1.212435565298   -11.160    11.130  1.0
 1      -16.217635376778        4.345710338728       -2.724317986047   -11.160    11.130  1.0
 1      -13.934122038222        3.733815491333       -2.184733397343   -11.160    11.130  1.0
 1      -12.917862996627        3.461496665482        0.000000000000   -11.160    11.130  1.0
 1      -13.934122038222        3.733815491333        2.184733397343   -11.160    11.130  1.0
 1      -16.217635376778        4.345710338728        2.724317986047   -11.160    11.130  1.0
 1      -18.048870893180        4.836411907199        1.212435565298   -11.160    11.130  1.0
 1      -18.034272761056        5.859690427304        0.000000000000   -11.160    11.130  1.0
 1      -17.033654642052        5.534569892032       -2.184733397343   -11.160    11.130  1.0
 1      -14.785286137539        4.804030680526       -2.724317986047   -11.160    11.130  1.0
 1      -12.982234589775        4.218183719334       -1.212435565298   -11.160    11.130  1.0
 1      -12.982234589775        4.218183719334        1.212435565298   -11.160    11.130  1.0
 1      -14.785286137539        4.804030680526        2.724317986047   -11.160    11.130  1.0
 1      -17.033654642052        5.534569892032        2.184733397343   -11.160    11.130  1.0
 1      -17.322882382194        7.712892576503        0.000000000000   -11.160    11.130  1.0
 1      -16.361735225629        7.284948507772       -2.184733397343   -11.160    11.130  1.0
 1      -14.202057168657        6.323366913800       -2.724317986047   -11.160    11.130  1.0
 1      -12.470129837581        5.552238347538       -1.212435565298   -11.160    11.130  1.0
 1      -12.470129837581        5.552238347538        1.212435565298   -11.160    11.130  1.0
 1      -14.202057168657        6.323366913800        2.724317986047   -11.160    11.130  1.0
 1      -16.361735225629        7.284948507772        2.184733397343   -11.160    11.130  1.0
 1      -16.649014713714        8.483096705644       -1.212435565298   -11.160    11.130  1.0
 1      -14.959808378465        7.622403088388       -2.724317986047   -11.160    11.130  1.0
 1      -12.853402531939        6.549135702619       -2.184733397343   -11.160    11.130  1.0
 1      -11.915963739419        6.071486780487        0.000000000000   -11.160    11.130  1.0
 1      -12.853402531939        6.549135702619        2.184733397343   -11.160    11.130  1.0
 1      -14.959808378465        7.622403088388        2.724317986047   -11.160    11.130  1.0
 1      -16.649014713714        8.483096705644        1.212435565298   -11.160    11.130  1.0
 1      -15.670962803607       10.177108895101       -1.212435565298   -11.160    11.130  1.0
 1      -14.080989456686        9.144541075580       -2.724317986047   -11.160    11.130  1.0
 1      -12.098325122620        7.856950065181       -2.184733397343   -11.160    11.130  1.0
 1      -11.215956483944        7.283918156806        0.000000000000   -11.160    11.130  1.0
 1      -12.098325122620        7.856950065181        2.184733397343   -11.160    11.130  1.0
 1      -14.080989456686        9.144541075580        2.724317986047   -11.160    11.130  1.0
 1      -15.670962803607       10.177108895101        1.212435565298   -11.160    11.130  1.0
 1      -15.340868702233       11.145793528719        0.000000000000   -11.160    11.130  1.0
 1      -14.489692090451       10.527377521415       -2.184733397343   -11.160    11.130  1.0
 1      -12.577115604614        9.137809366392       -2.724317986047   -11.160    11.130  1.0
 1      -11.043348348008        8.023462226405       -1.212435565298   -11.160    11.130  1.0
 1      -11.043348348008        8.023462226405        1.212435565298   -11.160    11.130  1.0
 1      -12.577115604614        9.137809366392        2.724317986047   -11.160    11.130  1.0
 1      -14.489692090451       10.527377521415        2.184733397343   -11.160    11.130  1.0
 1      -14.091625288672       12.688461792024        0.000000000000   -11.160    11.130  1.0
 1      -13.309762012182       11.984451991373       -2.184733397343   -11.160    11.130  1.0
 1      -11.552931177015       10.402556328494       -2.724317986047   -11.160    11.130  1.0
 1      -10.144062234868        9.133974502325       -1.212435565298   -11.160    11.130  1.0
 1      -10.144062234868        9.133974502325        1.212435565298   -11.160    11.130  1.0
 1      -11.552931177015       10.402556328494        2.724317986047   -11.160    11.130  1.0
 1      -13.309762012182       11.984451991373        2.184733397343   -11.160    11.130  1.0
 1      -13.212732886401       13.212732886401       -1.212435565298   -11.160    11.130  1.0
 1      -11.872171148578       11.872171148578       -2.724317986047   -11.160    11.130  1.0
 1      -10.200518003988       10.200518003988       -2.184733397343   -11.160    11.130  1.0
 1       -9.456562366018        9.456562366018        0.000000000000   -11.160    11.130  1.0
 1      -10.200518003988       10.200518003988        2.184733397343   -11.160    11.130  1.0
 1      -11.872171148578       11.872171148578        2.724317986047   -11.160    11.130  1.0
 1      -13.212732886401       13.212732886401        1.212435565298   -11.160    11.130  1.0
 1      -11.759071688798       14.521599556264       -1.212435565298   -11.160    11.130  1.0
 1      -10.565998180550       13.048240418189       -2.724317986047   -11.160    11.130  1.0
 1       -9.078259850029       11.210991624059       -2.184733397343   -11.160    11.130  1.0
 1       -8.416154004449       10.393338988899        0.000000000000   -11.160    11.130  1.0
 1       -9.078259850029       11.210991624059        2.184733397343   -11.160    11.130  1.0
 1      -10.565998180550       13.048240418189        2.724317986047   -11.160    11.130  1.0
 1      -11.759071688798       14.521599556264        1.212435565298   -11.160    11.130  1.0
 1      -11.145793528719       15.340868702233        0.000000000000   -11.160    11.130  1.0
 1      -10.527377521415       14.489692090451       -2.184733397343   -11.160    11.130  1.0
 1       -9.137809366392       12.577115604614       -2.724317986047   -11.160    11.130  1.0
 1       -8.023462226405       11.043348348008       -1.212435565298   -11.160    11.130  1.0
 1       -8.023462226405       11.043348348008        1.212435565298   -11.160    11.130  1.0
 1       -9.137809366392       12.577115604614        2.724317986047   -11.160    11.130  1.0
 1      -10.527377521415       14.489692090451        2.184733397343   -11.160    11.130  1.0
 1       -9.480981729768       16.421995961630        0.000000000000   -11.160    11.130  1.0
 1       -8.954936558419       15.510833813473       -2.184733397343   -11.160    11.130  1.0
 1       -7.772923787762       13.463471050883       -2.724317986047   -11.160    11.130  1.0
 1       -6.825023142769       11.821613592681       -1.212435565298   -11.160    11.130  1.0
 1       -6.825023142769       11.821613592681        1.212435565298   -11.160    11.130  1.0
 1       -7.772923787762       13.463471050883        2.724317986047   -11.160    11.130  1.0
 1       -8.954936558419       15.510833813473        2.184733397343   -11.160    11.130  1.0
 1       -8.483096705644       16.649014713714       -1.212435565298   -11.160    11.130  1.0
 1       -7.622403088388       14.959808378465       -2.724317986047   -11.160    11.130  1.0
 1       -6.549135702619       12.853402531939       -2.184733397343   -11.160    11.130  1.0
 1       -6.071486780487       11.915963739419        0.000000000000   -11.160    11.130  1.0
 1       -6.549135702619       12.853402531939        2.184733397343   -11.160    11.130  1.0
 1       -7.622403088388       14.959808378465        2.724317986047   -11.160    11.130  1.0
 1       -8.483096705644       16.649014713714        1.212435565298   -11.160    11.130  1.0
 1       -6.696120706820       17.444614874925       -1.212435565298   -11.160    11.130  1.0
 1       -6.016733384865       15.674687076229       -2.724317986047   -11.160    11.130  1.0
 1       -5.169551251361       13.467623211203       -2.184733397343   -11.160    11.130  1.0
 1       -4.792519732205       12.485387386109        0.000000000000   -11.160    11.130  1.0
 1       -5.169551251361       13.467623211203        2.184733397343   -11.160    11.130  1.0
 1       -6.016733384865       15.674687076229        2.724317986047   -11.160    11.130  1.0
 1       -6.696120706820       17.444614874925        1.212435565298   -11.160    11.130  1.0
 1       -5.859690427304       18.034272761056        0.000000000000   -11.160    11.130  1.0
 1       -5.534569892032       17.033654642052       -2.184733397343   -11.160    11.130  1.0
 1       -4.804030680526       14.785286137539       -2.724317986047   -11.160    11.130  1.0
 1       -4.218183719334       12.982234589775       -1.212435565298   -11.160    11.130  1.0
 1       -4.218183719334       12.982234589775        1.212435565298   -11.160    11.130  1.0
 1       -4.804030680526       14.785286137539        2.724317986047   -11.160    11.130  1.0
 1       -5.534569892032       17.033654642052        2.184733397343   -11.160    11.130  1.0
 1       -3.942273621271       18.548030747738        0.000000000000   -11.160    11.130  1.0
 1       -3.723539521605       17.518907151575       -2.184733397343   -11.160    11.130  1.0
 1       -3.232048461019       15.206487421293       -2.724317986047   -11.160    11.130  1.0
 1       -2.837903232724       13.352070778561       -1.212435565298   -11.160    11.130  1.0
 1       -2.837903232724       13.352070778561        1.212435565298   -11.160    11.130  1.0
 1       -3.232048461019       15.206487421293        2.724317986047   -11.160    11.130  1.0
 1       -3.723539521605       17.518907151575        2.184733397343   -11.160    11.130  1.0
 1       -2.923075914129       18.455574980342       -1.212435565298   -11.160    11.130  1.0
 1       -2.626501105501       16.583075333154       -2.724317986047   -11.160    11.130  1.0
 1       -2.256678368166       14.248106465142       -2.184733397343   -11.160    11.130  1.0
 1       -2.092091766346       13.208947558605        0.000000000000   -11.160    11.130  1.0
 1       -2.256678368166       14.248106465142        2.184733397343   -11.160    11.130  1.0
 1       -2.626501105501       16.583075333154        2.724317986047   -11.160    11.130  1.0
 1       -2.923075914129       18.455574980342        1.212435565298   -11.160    11.130  1.0
 1       -0.977706775443       18.660029745851       -1.212435565298   -11.160    11.130  1.0
 1       -0.878508804422       16.766786151281       -2.724317986047   -11.160    11.130  1.0
 1       -0.754810957829       14.405950003985       -2.184733397343   -11.160    11.130  1.0
 1       -0.699760237124       13.355279075157        0.000000000000   -11.160    11.130  1.0
 1       -0.754810957829       14.405950003985        2.184733397343   -11.160    11.130  1.0
 1       -0.878508804422       16.766786151281        2.724317986047   -11.160    11.130  1.0
 1       -0.977706775443       18.660029745851        1.212435565298   -11.160    11.130  1.0
 1        0.000000000000       18.962356549859        0.000000000000   -11.160    11.130  1.0
 1        0.000000000000       17.910244396838       -2.184733397343   -11.160    11.130  1.0
 1        0.000000000000       15.546169848176       -2.724317986047   -11.160    11.130  1.0
 1        0.000000000000       13.650329257348       -1.212435565298   -11.160    11.130  1.0
 1        0.000000000000       13.650329257348        1.212435565298   -11.160    11.130  1.0
 1        0.000000000000       15.546169848176        2.724317986047   -11.160    11.130  1.0
 1        0.000000000000       17.910244396838        2.184733397343   -11.160    11.130  1.0
 1        1.982331696712       18.858455052528        0.000000000000   -11.160    11.130  1.0
 1        1.872343507008       17.812107796278       -2.184733397343   -11.160    11.130  1.0
 1        1.625202288095       15.460986853080       -2.724317986047   -11.160    11.130  1.0
 1        1.427010418575       13.575534247287       -1.212435565298   -11.160    11.130  1.0
 1        1.427010418575       13.575534247287        1.212435565298   -11.160    11.130  1.0
 1        1.625202288095       15.460986853080        2.724317986047   -11.160    11.130  1.0
 1        1.872343507008       17.812107796278        2.184733397343   -11.160    11.130  1.0
 1        2.923075914129       18.455574980342       -1.212435565298   -11.160    11.130  1.0
 1        2.626501105501       16.583075333154       -2.724317986047   -11.160    11.130  1.0
 1        2.256678368166       14.248106465142       -2.184733397343   -11.160    11.130  1.0
 1        2.092091766346       13.208947558605        0.000000000000   -11.160    11.130  1.0
 1        2.256678368166       14.248106465142        2.184733397343   -11.160    11.130  1.0
 1        2.626501105501       16.583075333154        2.724317986047   -11.160    11.130  1.0
 1        2.923075914129       18.455574980342        1.212435565298   -11.160    11.130  1.0
 1        4.836411907199       18.048870893180       -1.212435565298   -11.160    11.130  1.0
 1        4.345710338728       16.217635376778       -2.724317986047   -11.160    11.130  1.0
 1        3.733815491333       13.934122038222       -2.184733397343   -11.160    11.130  1.0
 1        3.461496665482       12.917862996627        0.000000000000   -11.160    11.130  1.0
 1        3.733815491333       13.934122038222        2.184733397343   -11.160    11.130  1.0
 1        4.345710338728       16.217635376778        2.724317986047   -11.160    11.130  1.0
 1        4.836411907199       18.048870893180        1.212435565298   -11.160    11.130  1.0
 1        5.859690427304       18.034272761056        0.000000000000   -11.160    11.130  1.0
 1        5.534569892032       17.033654642052       -2.184733397343   -11.160    11.130  1.0
 1        4.804030680526       14.785286137539       -2.724317986047   -11.160    11.130  1.0
 1        4.218183719334       12.982234589775       -1.212435565298   -11.160    11.130  1.0
 1        4.218183719334       12.982234589775        1.212435565298   -11.160    11.130  1.0
 1        4.804030680526       14.785286137539        2.724317986047   -11.160    11.130  1.0
 1        5.534569892032       17.033654642052        2.184733397343   -11.160    11.130  1.0
 1        7.712892576503       17.322882382194        0.000000000000   -11.160    11.130  1.0
 1        7.284948507772       16.361735225629       -2.184733397343   -11.160    11.130  1.0
 1        6.323366913800       14.202057168657       -2.724317986047   -11.160    11.130  1.0
 1        5.552238347538       12.470129837581       -1.212435565298   -11.160    11.130  1.0