molecule{
  trifuran
      15
      17
       9
       9

 O        0.000000000000        0.822899353209        0.000000000000    -34.000000   23.000000 2.0
 C        1.132623792125        0.000000000000        0.000000000000    -11.160000   11.130000 1.0
 C        0.700000000000       -1.331479122813        0.000000000000    -11.160000   11.130000 1.0
 C       -0.700000000000       -1.331479122813        0.000000000000    -11.160000   11.130000 1.0
 C       -1.132623792125        0.000000000000        0.000000000000    -11.160000   11.130000 1.0
 O       -3.665247584250       -0.822899353209        0.000000000000    -34.000000   23.000000 2.0
 C       -4.797871376375        0.000000000000        0.000000000000    -11.160000   11.130000 1.0
 C       -4.365247584250        1.331479122813        0.000000000000    -11.160000   11.130000 1.0
 C       -2.965247584250        1.331479122813        0.000000000000    -11.160000   11.130000 1.0
 C       -2.532623792125        0.000000000000        0.000000000000    -11.160000   11.130000 1.0
 O       -7.330495168500        0.822899353209        0.000000000000    -34.000000   23.000000 2.0
 C       -6.197871376375        0.000000000000        0.000000000000    -11.160000   11.130000 1.0
 C       -6.630495168500       -1.331479122813        0.000000000000    -11.160000   11.130000 1.0
 C       -8.030495168500       -1.331479122813        0.000000000000    -11.160000   11.130000 1.0
 C       -8.463118960625        0.000000000000        0.000000000000    -11.160000   11.130000 1.0
 
    1    2  -2.500 single 1.40000
    1    5  -2.500 single 1.40000
    2    3  -2.400 double 1.40000
    3    4  -2.100 single 1.40000
    4    5  -2.400 double 1.40000
    5   10  -2.100 single 1.40000
    6    7  -2.500 single 1.40000
    6   10  -2.500 single 1.40000
    7    8  -2.400 double 1.40000
    7   12  -2.100 single 1.40000
    8    9  -2.100 single 1.40000
    9   10  -2.400 double 1.40000
   11   12  -2.500 single 1.40000
   11   15  -2.500 single 1.40000
   12   13  -2.400 double 1.40000
   13   14  -2.100 single 1.40000
   14   15  -2.400 double 1.40000

}

general{method='cue-ccsd+hf',jobtype='polarizability',coulomb-integrals='mataga-nishimoto'}
system{memory=2048,nproc=4,verbose=3,allow-restart,email-send,
email-send-tared,email-reciver='abzakharov@karazin.ua'}
coupled-cluster{t3-step=1.E-6}
#cue{t2-limit=2}
